cvc5/d18744c85ba86d69b147630b131d5efba0ad905fd92c50cbc4830c3a_medium.smt2
(set-info :smt-lib-version 2.6)
(set-logic QF_SLIA)
(set-info :source |
Generated by: Wei-Cheng Wu
Generated on: 2020-02-24
Generator: PyExZ3
Application: Concolic execution of Python code
Target solver: CVC4, Z3, Z3str3, Z3-Trau
|)
(set-info :license "https://creativecommons.org/licenses/by/4.0/")
(set-info :category "industrial")
(set-info :status unknown)

(declare-fun word1 () String)
(declare-fun in1 () String)
(declare-fun in0 () String)
(declare-const rest_0_1478 String)
(declare-const rest_1_8987 String)

(assert (and (not (not (= (ite (= word1 in1) 1 0) 0))) (not (= (ite (= word1 in0) 1 0) 0))))

(assert (= (str.split_at in1 "#" 3) word1))
(assert (= (str.split_rest in1 "#" 0) rest_0_1478))
(assert (= (str.split_rest in1 ".." 2) "dngrxd6woochxno"))
(assert (= (str.split_rest in1 ".." 0) rest_1_8987))
(check-sat)

(exit)
(get-model)
