cvc5/d18744c85ba86d69b147630b131d5efba0ad905fd92c50cbc4830c3a_medium.txt
(define-fun word1 () String "#")
(define-fun in1 () String "")
(define-fun in0 () String "#")
(define-fun rest_0_1478 () String "dngrxd6woochxno")
(define-fun rest_1_8987 () String "dngrxd6woochxno")